(set-info :smt-lib-version 2.6)
(set-info :category "crafted")
(set-logic QF_FFA)
(define-sort FF0 () (_ FiniteField 52435875175126190479447740508185965837690552500527637822603658699938581184513))
(declare-fun return_n2_alt () FF0)
(declare-fun b_n3_alt () FF0)
(declare-fun is_zero_n17_alt () FF0)
(declare-fun is_zero_n20_alt () FF0)
(declare-fun is_zero_n13_alt () FF0)
(declare-fun mul_n18_alt () FF0)
(declare-fun mul_n5_alt () FF0)
(declare-fun is_zero_inv_n21_alt () FF0)
(declare-fun mul_n11_alt () FF0)
(declare-fun a_n4_alt () FF0)
(declare-fun d_n0_alt () FF0)
(declare-fun is_zero_inv_n19_alt () FF0)
(declare-fun c_n1_alt () FF0)
(declare-fun is_zero_n15_alt () FF0)
(declare-fun is_zero_inv_n16_alt () FF0)
(declare-fun mul_n10_alt () FF0)
(declare-fun mul_n8_alt () FF0)
(declare-fun is_zero_inv_n14_alt () FF0)
(declare-fun is_zero_n7_alt () FF0)
(declare-fun is_zero_inv_n12_alt () FF0)
(declare-fun mul_n9_alt () FF0)
(declare-fun is_zero_inv_n6_alt () FF0)
(declare-fun return_n2 () FF0)
(declare-fun b_n3 () FF0)
(declare-fun is_zero_n17 () FF0)
(declare-fun is_zero_n20 () FF0)
(declare-fun is_zero_n13 () FF0)
(declare-fun mul_n18 () FF0)
(declare-fun mul_n5 () FF0)
(declare-fun is_zero_inv_n21 () FF0)
(declare-fun mul_n11 () FF0)
(declare-fun a_n4 () FF0)
(declare-fun d_n0 () FF0)
(declare-fun is_zero_inv_n19 () FF0)
(declare-fun c_n1 () FF0)
(declare-fun is_zero_n15 () FF0)
(declare-fun is_zero_inv_n16 () FF0)
(declare-fun mul_n10 () FF0)
(declare-fun mul_n8 () FF0)
(declare-fun is_zero_inv_n14 () FF0)
(declare-fun is_zero_n7 () FF0)
(declare-fun is_zero_inv_n12 () FF0)
(declare-fun mul_n9 () FF0)
(declare-fun is_zero_inv_n6 () FF0)
(assert 
  (let ((let0 (as ff1 FF0)))
  (let ((let1 (as ff52435875175126190479447740508185965837690552500527637822603658699938581184512 FF0)))
  (let ((let2 return_n2_alt))
  (let ((let3 (ff.mul let2 let1)))
  (let ((let4 (ff.add let3 let0)))
  (let ((let5 (as ff2 FF0)))
  (let ((let6 b_n3_alt))
  (let ((let7 is_zero_n17_alt))
  (let ((let8 is_zero_n20_alt))
  (let ((let9 (ff.mul let8 let1)))
  (let ((let10 is_zero_n13_alt))
  (let ((let11 mul_n18_alt))
  (let ((let12 (ff.mul let11 let1)))
  (let ((let13 mul_n5_alt))
  (let ((let14 (ff.mul let13 let1)))
  (let ((let15 (ff.add let14 let12 let10 let9 let7 let6 let5)))
  (let ((let16 is_zero_inv_n21_alt))
  (let ((let17 (ff.mul let16 let15)))
  (let ((let18 (= let17 let4)))
  (let ((let19 (as ff0 FF0)))
  (let ((let20 (as ff3 FF0)))
  (let ((let21 mul_n11_alt))
  (let ((let22 a_n4_alt))
  (let ((let23 (ff.mul let22 let1)))
  (let ((let24 (ff.mul let10 let1)))
  (let ((let25 d_n0_alt))
  (let ((let26 (ff.mul let25 let1)))
  (let ((let27 (ff.add let26 let24 let23 let21 let20)))
  (let ((let28 (ff.mul let8 let27)))
  (let ((let29 (= let28 let19)))
  (let ((let30 (ff.add let9 let0)))
  (let ((let31 is_zero_inv_n19_alt))
  (let ((let32 (ff.mul let31 let27)))
  (let ((let33 (= let32 let30)))
  (let ((let34 (ff.mul let6 let5)))
  (let ((let35 (ff.add let34 let1)))
  (let ((let36 c_n1_alt))
  (let ((let37 (ff.mul let36 let35)))
  (let ((let38 (= let37 let11)))
  (let ((let39 is_zero_n15_alt))
  (let ((let40 (ff.mul let39 let5)))
  (let ((let41 (ff.add let6 let24 let40 let0)))
  (let ((let42 (ff.mul let7 let41)))
  (let ((let43 (= let42 let19)))
  (let ((let44 (ff.mul let7 let1)))
  (let ((let45 (ff.add let44 let0)))
  (let ((let46 is_zero_inv_n16_alt))
  (let ((let47 (ff.mul let46 let41)))
  (let ((let48 (= let47 let45)))
  (let ((let49 (as ff4 FF0)))
  (let ((let50 (as ff52435875175126190479447740508185965837690552500527637822603658699938581184511 FF0)))
  (let ((let51 (ff.mul let6 let50)))
  (let ((let52 (ff.mul let21 let1)))
  (let ((let53 mul_n10_alt))
  (let ((let54 (ff.mul let53 let1)))
  (let ((let55 mul_n8_alt))
  (let ((let56 (ff.mul let55 let50)))
  (let ((let57 (ff.add let56 let10 let54 let52 let51 let49)))
  (let ((let58 (ff.mul let39 let57)))
  (let ((let59 (= let58 let19)))
  (let ((let60 (ff.mul let39 let1)))
  (let ((let61 (ff.add let60 let0)))
  (let ((let62 is_zero_inv_n14_alt))
  (let ((let63 (ff.mul let62 let57)))
  (let ((let64 (= let63 let61)))
  (let ((let65 (ff.mul let6 let1)))
  (let ((let66 is_zero_n7_alt))
  (let ((let67 (ff.mul let66 let1)))
  (let ((let68 (ff.mul let55 let1)))
  (let ((let69 (ff.add let26 let68 let13 let67 let23 let65 let49)))
  (let ((let70 (ff.mul let10 let69)))
  (let ((let71 (= let70 let19)))
  (let ((let72 (ff.add let24 let0)))
  (let ((let73 is_zero_inv_n12_alt))
  (let ((let74 (ff.mul let73 let69)))
  (let ((let75 (= let74 let72)))
  (let ((let76 (ff.add let68 let65 let0)))
  (let ((let77 (ff.mul let76 let53)))
  (let ((let78 (= let77 let21)))
  (let ((let79 (ff.mul let36 let1)))
  (let ((let80 (ff.add let79 let0)))
  (let ((let81 mul_n9_alt))
  (let ((let82 (ff.mul let81 let80)))
  (let ((let83 (= let82 let53)))
  (let ((let84 (ff.add let67 let0)))
  (let ((let85 (ff.mul let76 let84)))
  (let ((let86 (= let85 let81)))
  (let ((let87 (ff.add let14 let65 let0)))
  (let ((let88 (ff.mul let22 let87)))
  (let ((let89 (= let88 let55)))
  (let ((let90 (ff.add let13 let23 let79 let20)))
  (let ((let91 (ff.mul let66 let90)))
  (let ((let92 (= let91 let19)))
  (let ((let93 is_zero_inv_n6_alt))
  (let ((let94 (ff.mul let93 let90)))
  (let ((let95 (= let94 let84)))
  (let ((let96 (ff.mul let36 let6)))
  (let ((let97 (= let96 let13)))
  (let ((let98 (and let97 let95 let92 let89 let86 let83 let78 let75 let71 let64 let59 let48 let43 let38 let33 let29 let18)))
  (let ((let99 return_n2))
  (let ((let100 (ff.mul let99 let1)))
  (let ((let101 (ff.add let100 let0)))
  (let ((let102 b_n3))
  (let ((let103 is_zero_n17))
  (let ((let104 is_zero_n20))
  (let ((let105 (ff.mul let104 let1)))
  (let ((let106 is_zero_n13))
  (let ((let107 mul_n18))
  (let ((let108 (ff.mul let107 let1)))
  (let ((let109 mul_n5))
  (let ((let110 (ff.mul let109 let1)))
  (let ((let111 (ff.add let110 let108 let106 let105 let103 let102 let5)))
  (let ((let112 is_zero_inv_n21))
  (let ((let113 (ff.mul let112 let111)))
  (let ((let114 (= let113 let101)))
  (let ((let115 mul_n11))
  (let ((let116 a_n4))
  (let ((let117 (ff.mul let116 let1)))
  (let ((let118 (ff.mul let106 let1)))
  (let ((let119 d_n0))
  (let ((let120 (ff.mul let119 let1)))
  (let ((let121 (ff.add let120 let118 let117 let115 let20)))
  (let ((let122 (ff.mul let104 let121)))
  (let ((let123 (= let122 let19)))
  (let ((let124 (ff.add let105 let0)))
  (let ((let125 is_zero_inv_n19))
  (let ((let126 (ff.mul let125 let121)))
  (let ((let127 (= let126 let124)))
  (let ((let128 (ff.mul let102 let5)))
  (let ((let129 (ff.add let128 let1)))
  (let ((let130 c_n1))
  (let ((let131 (ff.mul let130 let129)))
  (let ((let132 (= let131 let107)))
  (let ((let133 is_zero_n15))
  (let ((let134 (ff.mul let133 let5)))
  (let ((let135 (ff.add let102 let118 let134 let0)))
  (let ((let136 (ff.mul let103 let135)))
  (let ((let137 (= let136 let19)))
  (let ((let138 (ff.mul let103 let1)))
  (let ((let139 (ff.add let138 let0)))
  (let ((let140 is_zero_inv_n16))
  (let ((let141 (ff.mul let140 let135)))
  (let ((let142 (= let141 let139)))
  (let ((let143 (ff.mul let102 let50)))
  (let ((let144 (ff.mul let115 let1)))
  (let ((let145 mul_n10))
  (let ((let146 (ff.mul let145 let1)))
  (let ((let147 mul_n8))
  (let ((let148 (ff.mul let147 let50)))
  (let ((let149 (ff.add let148 let106 let146 let144 let143 let49)))
  (let ((let150 (ff.mul let133 let149)))
  (let ((let151 (= let150 let19)))
  (let ((let152 (ff.mul let133 let1)))
  (let ((let153 (ff.add let152 let0)))
  (let ((let154 is_zero_inv_n14))
  (let ((let155 (ff.mul let154 let149)))
  (let ((let156 (= let155 let153)))
  (let ((let157 (ff.mul let102 let1)))
  (let ((let158 is_zero_n7))
  (let ((let159 (ff.mul let158 let1)))
  (let ((let160 (ff.mul let147 let1)))
  (let ((let161 (ff.add let120 let160 let109 let159 let117 let157 let49)))
  (let ((let162 (ff.mul let106 let161)))
  (let ((let163 (= let162 let19)))
  (let ((let164 (ff.add let118 let0)))
  (let ((let165 is_zero_inv_n12))
  (let ((let166 (ff.mul let165 let161)))
  (let ((let167 (= let166 let164)))
  (let ((let168 (ff.add let160 let157 let0)))
  (let ((let169 (ff.mul let168 let145)))
  (let ((let170 (= let169 let115)))
  (let ((let171 (ff.mul let130 let1)))
  (let ((let172 (ff.add let171 let0)))
  (let ((let173 mul_n9))
  (let ((let174 (ff.mul let173 let172)))
  (let ((let175 (= let174 let145)))
  (let ((let176 (ff.add let159 let0)))
  (let ((let177 (ff.mul let168 let176)))
  (let ((let178 (= let177 let173)))
  (let ((let179 (ff.add let110 let157 let0)))
  (let ((let180 (ff.mul let116 let179)))
  (let ((let181 (= let180 let147)))
  (let ((let182 (ff.add let109 let117 let171 let20)))
  (let ((let183 (ff.mul let158 let182)))
  (let ((let184 (= let183 let19)))
  (let ((let185 is_zero_inv_n6))
  (let ((let186 (ff.mul let185 let182)))
  (let ((let187 (= let186 let176)))
  (let ((let188 (ff.mul let130 let102)))
  (let ((let189 (= let188 let109)))
  (let ((let190 (and let189 let187 let184 let181 let178 let175 let170 let167 let163 let156 let151 let142 let137 let132 let127 let123 let114)))
  (let ((let191 (= let99 let2)))
  (let ((let192 (not let191)))
  (let ((let193 (= let116 let22)))
  (let ((let194 (= let102 let6)))
  (let ((let195 (= let130 let36)))
  (let ((let196 (= let119 let25)))
  (let ((let197 (and let196 let195 let194 let193)))
  (let ((let198 (and let197 let192 let190 let98)))
  let198
)))))))))))))))))))))))))))))))))))))))))))))))))))))))))))))))))))))))))))))))))))))))))))))))))))))))))))))))))))))))))))))))))))))))))))))))))))))))))))))))))))))))))))))))))))))))))))))))))))))))
)
(check-sat)
